p cnf 997 50
94 485 0
506 326 0
416 248 0
992 421 0
649 322 0
237 795 0
457 43 1
815 845 0
446 955 0
422 252 0
791 9 1
359 901 0
667 122 1
598 94 1
7 738 0
544 574 0
334 715 0
766 882 0
994 367 0
893 984 0
633 299 0
131 433 0
428 682 0
700 72 1
617 874 0
874 138 1
720 856 0
419 145 0
794 995 0
196 529 0
997 199 1
116 277 0
908 97 1
539 719 0
707 242 0
569 107 0
537 122 0
931 70 1
726 98 1
487 600 0
772 645 0
513 267 0
81 972 0
943 895 0
58 213 0
303 748 0
764 487 0
536 923 0
724 29 1
789 674 0